c ren 1 -> 1
c ren 2 -> 2
c ren 3 -> 3
c ren 4 -> 4
c ren 5 -> 5
c ren 6 -> 6
c ren 7 -> 7
c ren 8 -> 8
c ren 9 -> 9
c ren 10 -> 10
c ren 11 -> 11
c ren 12 -> 12
c ren 13 -> 13
c ren 14 -> 14
c ren 15 -> 15
c ren 16 -> 16
c ren 17 -> 17
c ren 18 -> 18
c ren 19 -> 19
c ren 20 -> 20
c ren 21 -> 21
c ren 22 -> 22
c ren 23 -> 23
c ren 24 -> 24
c ren 25 -> 25
c ren 26 -> 26
c ren 27 -> 27
c ren 28 -> 28
c ren 29 -> 29
c ren 30 -> 30
c ren 31 -> 31
c ren 32 -> 32
c ren 33 -> 33
c ren 34 -> 34
c ren 35 -> 35
c ren 36 -> 36
c ren 38 -> 37
c ren 56 -> 38
c ren 59 -> 39
c ren 62 -> 40
c ren 64 -> 41
c ren 72 -> 42
c ren 79 -> 43
c ren 86 -> 44
c ren 93 -> 45
c ren 100 -> 46
c ren 120 -> 47
c ren 127 -> 48
c ren 130 -> 49
c ren 140 -> 50
c ren 149 -> 51
c ren 158 -> 52
c ren 167 -> 53
c ren 176 -> 54
c ren 185 -> 55
c ren 214 -> 56
c ren 225 -> 57
c ren 234 -> 58
c ren 242 -> 59
c ren 250 -> 60
c ren 258 -> 61
c ren 266 -> 62
c ren 274 -> 63
c ren 292 -> 64
c ren 308 -> 65
c ren 312 -> 66
c ren 313 -> 67
c ren 314 -> 68
c ren 315 -> 69
c ren 316 -> 70
c ren 317 -> 71
c ren 318 -> 72
c ren 319 -> 73
c ren 320 -> 74
c ren 321 -> 75
c ren 322 -> 76
c ren 323 -> 77
c ren 324 -> 78
c ren 325 -> 79
c ren 326 -> 80
c ren 327 -> 81
c ren 328 -> 82
c ren 329 -> 83
c ren 330 -> 84
c ren 331 -> 85
c ren 332 -> 86
c ren 333 -> 87
c ren 334 -> 88
c ren 335 -> 89
c ren 336 -> 90
c ren 337 -> 91
c ren 338 -> 92
c ren 339 -> 93
c ren 340 -> 94
c ren 341 -> 95
c ren 342 -> 96
c ren 343 -> 97
c ren 344 -> 98
c ren 345 -> 99
c ren 346 -> 100
c ren 347 -> 101
c ren 348 -> 102
c ren 349 -> 103
c ren 350 -> 104
c ren 351 -> 105
c ren 366 -> 106
c ren 385 -> 107
c ren 404 -> 108
c ren 413 -> 109
c ren 431 -> 110
c ren 450 -> 111
c ren 490 -> 112
c ren 501 -> 113
c ren 510 -> 114
c ren 518 -> 115
c ren 526 -> 116
c ren 534 -> 117
c ren 542 -> 118
c ren 550 -> 119
c ren 558 -> 120
c ren 609 -> 121
c ren 610 -> 122
c ren 611 -> 123
c ren 612 -> 124
c ren 613 -> 125
c ren 614 -> 126
c ren 615 -> 127
c ren 616 -> 128
c ren 617 -> 129
c ren 618 -> 130
c ren 619 -> 131
c ren 620 -> 132
c ren 621 -> 133
c ren 622 -> 134
c ren 623 -> 135
c ren 624 -> 136
c ren 625 -> 137
c ren 626 -> 138
c ren 627 -> 139
c ren 628 -> 140
c ren 629 -> 141
c ren 630 -> 142
c ren 631 -> 143
c ren 632 -> 144
c ren 633 -> 145
c ren 634 -> 146
p cnf 146 775
a 1 2 3 4 5 6 7 8 9 10 11 12 13 14 15 16 17 18 19 20 21 22 23 24 25 26 27 28 29 30 31 32 33 34 35 36 78 79 80 81 82 83 84 85 86 87 88 89 90 91 92 93 94 95 96 97 98 99 100 101 102 103 104 105 0
d 66 78 0
d 67 94 95 96 97 98 99 100 101 102 103 104 105 0
d 68 94 95 96 97 98 99 100 101 102 103 104 105 0
d 69 94 95 96 97 98 99 100 101 102 103 104 105 0
d 70 80 81 0
d 71 79 0
d 72 82 83 84 85 86 87 88 89 90 91 92 93 0
d 73 82 83 84 85 86 87 88 89 90 91 92 93 0
d 74 82 83 84 85 86 87 88 89 90 91 92 93 0
d 75 82 83 84 85 86 87 88 89 90 91 92 93 0
d 76 82 83 84 85 86 87 88 89 90 91 92 93 0
d 77 82 83 84 85 86 87 88 89 90 91 92 93 0
e 37 38 39 40 41 42 43 44 45 46 47 48 49 50 51 52 53 54 55 56 57 58 59 60 61 62 63 64 65 106 107 108 109 110 111 112 113 114 115 116 117 118 119 120 121 122 123 124 125 126 127 128 129 130 131 132 133 134 135 136 137 138 139 140 141 142 143 144 145 146 0
-1 -37 0
2 -37 0
1 -2 37 0
-4 -6 7 9 -68 74 107 0
4 -6 -41 0
-8 -10 11 13 -68 74 108 0
8 -10 -41 0
-57 113 -115 -121 0
-12 -86 -130 0
12 -14 -41 0
-18 21 -41 -49 54 0
16 -18 -41 0
-4 10 -12 -16 22 37 38 39 40 41 0
-20 -22 23 74 99 -143 0
20 -22 -41 0
-24 -38 0
26 -38 0
-34 35 -57 -112 113 -121 0
-28 -39 0
30 -39 0
-59 114 115 -121 0
-32 -40 0
34 -40 0
-37 -41 0
4 -6 -7 9 68 -74 107 0
8 -10 -11 13 68 -74 108 0
16 -18 19 46 0
20 -22 -23 25 68 -74 111 0
-38 -41 0
-39 -41 0
-40 -41 0
37 41 -50 0
-2 5 -41 -49 50 0
-4 10 14 -16 22 37 38 39 40 41 0
5 -37 -49 50 0
-4 10 14 18 -20 37 38 39 40 41 0
-2 3 -41 42 0
-4 10 -12 18 22 37 38 39 40 41 0
10 -85 -129 0
-3 -42 0
3 -37 42 0
6 -84 -128 0
-4 10 14 -16 -20 37 38 39 40 41 0
-4 10 14 18 22 37 38 39 40 41 0
2 -42 0
-6 7 -41 43 0
6 -8 14 -16 -20 37 38 39 40 41 0
6 -8 -12 -16 22 37 38 39 40 41 0
9 -43 51 0
6 -8 14 -16 22 37 38 39 40 41 0
-4 -8 -12 -16 -20 37 38 39 40 41 0
6 -8 -12 18 -20 37 38 39 40 41 0
4 74 -95 -139 0
58 59 -115 -121 0
6 -8 -12 18 22 37 38 39 40 41 0
6 -95 -139 0
-4 -6 7 74 95 -139 0
-10 11 -41 44 0
6 10 -12 18 -20 37 38 39 40 41 0
6 -8 14 18 22 37 38 39 40 41 0
13 -44 52 0
6 10 -12 18 22 37 38 39 40 41 0
-4 -8 -12 18 -20 37 38 39 40 41 0
6 10 -12 -16 -20 37 38 39 40 41 0
6 -8 14 18 -20 37 38 39 40 41 0
8 74 -96 -140 0
59 61 -62 114 116 118 120 -121 0
6 10 -12 -16 22 37 38 39 40 41 0
10 -96 -140 0
-8 -10 11 74 96 -140 0
17 -45 53 0
-14 15 -41 45 0
6 10 14 -16 22 37 38 39 40 41 0
-4 -8 14 -16 -20 37 38 39 40 41 0
6 10 14 18 -20 37 38 39 40 41 0
6 10 14 -16 -20 37 38 39 40 41 0
-15 -45 0
12 -14 86 -130 0
6 10 14 18 22 37 38 39 40 41 0
14 -45 0
-18 19 -41 46 0
21 -46 54 0
-4 -8 14 18 -20 37 38 39 40 41 0
16 -18 21 -49 54 0
-65 114 116 118 120 -121 0
-20 -27 39 41 42 43 44 45 46 48 49 0
-22 25 -41 -49 55 0
-20 26 41 42 43 44 45 46 47 48 49 0
20 -22 23 25 55 0
-20 -27 41 42 43 44 45 46 47 48 49 0
-20 26 40 41 42 43 44 45 46 47 49 0
-20 -27 39 40 41 42 43 44 45 46 49 0
22 -99 -143 0
-20 38 41 42 43 44 45 46 47 48 49 0
-20 -22 -23 25 68 74 111 0
22 38 40 41 42 43 44 45 46 47 49 0
-33 -36 38 41 50 51 52 53 54 55 56 0
-26 27 -41 -49 0
-23 26 42 43 44 45 46 47 48 49 0
27 -38 -49 0
-23 -99 -143 0
-26 29 -41 -49 -56 0
-33 38 40 41 50 51 52 53 54 55 56 0
-33 38 41 48 49 50 51 52 53 54 55 56 0
-26 27 38 74 100 -144 0
20 -22 25 -49 55 0
27 29 -38 -56 0
-27 39 40 41 49 50 51 52 53 54 55 56 0
-29 -36 39 41 50 51 52 53 54 55 56 0
-41 -47 -49 0
-23 38 40 41 42 43 44 45 46 47 49 0
-39 -47 -49 0
-23 -68 -111 0
-30 33 -41 -49 -56 0
-27 30 -36 49 50 51 52 53 54 55 56 0
-29 39 41 48 49 50 51 52 53 54 55 56 0
-31 -47 0
30 -47 0
33 -41 -47 -56 0
-27 -33 40 41 49 50 51 52 53 54 55 56 0
-29 -33 40 41 50 51 52 53 54 55 56 0
-41 -48 -49 0
-29 30 40 41 50 51 52 53 54 55 56 0
-40 -48 -49 0
-23 -27 39 40 41 42 43 44 45 46 49 0
-34 36 -41 -49 -56 0
-29 40 41 47 49 50 51 52 53 54 55 56 0
-27 -36 39 41 49 50 51 52 53 54 55 56 0
-35 -48 0
34 -48 0
29 -38 -49 -56 0
-20 38 39 40 41 42 43 44 45 46 49 0
-42 -49 0
-43 -49 0
-44 -49 0
-45 -49 0
-46 -49 0
26 -100 -144 0
33 -39 -47 -56 0
36 -40 -48 -56 0
36 -40 -49 -56 0
37 41 -42 0
-23 38 39 40 41 42 43 44 45 46 49 0
-23 38 39 41 42 43 44 45 46 48 49 0
5 -37 -42 50 0
-23 38 41 42 43 44 45 46 47 48 49 0
-5 -50 0
2 -50 0
42 49 -50 0
5 -41 -42 50 0
-4 -8 -12 -16 22 37 38 39 40 41 0
-4 -6 -7 9 68 74 107 0
6 -51 0
-7 -68 -107 0
-60 114 115 116 117 -121 0
-9 -51 0
6 -107 0
43 49 -51 0
-4 41 -43 0
-4 -8 -12 18 22 37 38 39 40 41 0
-8 -10 -11 13 68 74 108 0
10 -52 0
-11 -68 -108 0
-13 -52 0
10 -108 0
44 49 -52 0
-8 41 -44 0
-4 -8 14 -16 22 37 38 39 40 41 0
-17 -53 0
14 -53 0
45 49 -53 0
-12 41 -45 0
-4 -8 14 18 22 37 38 39 40 41 0
-16 41 -54 0
-21 -110 0
-18 -19 21 68 -71 -74 110 0
59 -60 114 116 -119 -121 0
18 -110 0
46 49 -54 0
-16 41 -46 0
-20 38 39 41 42 43 44 45 46 48 49 0
-20 26 39 40 41 42 43 44 45 46 49 0
22 -55 0
22 26 42 43 44 45 46 47 48 49 0
-25 -55 0
22 -111 0
-20 38 40 41 42 43 44 45 46 47 49 0
-20 26 39 41 42 43 44 45 46 48 49 0
20 74 -99 -143 0
-26 27 29 -41 -56 0
-29 39 40 41 50 51 52 53 54 55 56 0
22 38 39 40 41 42 43 44 45 46 49 0
-27 -100 -144 0
26 -36 39 41 50 51 52 53 54 55 56 0
22 26 39 40 41 42 43 44 45 46 49 0
-29 -33 34 50 51 52 53 54 55 56 0
22 -88 -132 0
26 -33 -36 50 51 52 53 54 55 56 0
-36 38 41 47 49 50 51 52 53 54 55 56 0
14 -86 -130 0
38 41 47 48 49 50 51 52 53 54 55 56 0
26 39 41 48 49 50 51 52 53 54 55 56 0
33 -39 -49 -56 0
22 26 40 41 42 43 44 45 46 47 49 0
26 34 39 41 50 51 52 53 54 55 56 0
26 40 41 47 49 50 51 52 53 54 55 56 0
38 40 41 47 49 50 51 52 53 54 55 56 0
26 30 40 41 50 51 52 53 54 55 56 0
30 38 41 48 49 50 51 52 53 54 55 56 0
30 48 -67 -68 106 107 108 109 110 111 112 0
-30 33 39 47 68 74 -112 0
58 -60 115 116 117 -121 0
-27 34 47 49 50 51 52 53 54 55 56 0
30 -36 -67 106 107 108 109 110 111 112 0
-33 -36 -67 106 107 108 109 110 111 112 0
34 38 39 41 50 51 52 53 54 55 56 0
-27 -33 -36 49 50 51 52 53 54 55 56 0
-29 -33 48 49 50 51 52 53 54 55 56 0
-33 -48 -67 68 106 107 108 109 110 111 112 0
36 -41 -48 -56 0
-33 34 -67 106 107 108 109 110 111 112 0
-33 48 -67 -68 106 107 108 109 110 111 112 0
-33 -40 -67 74 106 107 108 109 110 111 112 0
34 47 -67 -68 106 107 108 109 110 111 112 0
-34 36 40 48 68 74 -112 0
-36 47 -67 -68 106 107 108 109 110 111 112 0
34 39 -67 -74 106 107 108 109 110 111 112 0
-36 -47 -67 68 106 107 108 109 110 111 112 0
38 39 41 48 49 50 51 52 53 54 55 56 0
-50 -56 0
-51 -56 0
-52 -56 0
-53 -56 0
-54 -56 0
-55 -56 0
-23 -27 40 41 42 43 44 45 46 47 49 0
-27 30 34 49 50 51 52 53 54 55 56 0
-36 -39 -67 74 106 107 108 109 110 111 112 0
1 -2 3 -56 57 0
-1 41 -57 0
-2 5 -41 -49 57 0
1 -2 -49 -56 57 0
-3 49 -57 0
-2 -41 -49 -56 57 0
-2 3 -41 -56 57 0
-5 56 -57 0
2 -57 0
1 -2 3 5 57 0
1 -2 5 -49 57 0
-2 3 5 -41 57 0
4 -6 7 -56 58 0
-4 41 -58 0
-6 9 -41 -49 58 0
4 -6 -49 -56 58 0
-7 49 -58 0
-6 -41 -49 -56 58 0
-6 7 -41 -56 58 0
-9 56 -58 0
4 -6 7 9 58 0
4 -6 9 -49 58 0
-6 7 9 -41 58 0
6 -58 0
8 -10 11 -56 59 0
-8 41 -59 0
-10 13 -41 -49 59 0
8 -10 -49 -56 59 0
-11 49 -59 0
-10 -41 -49 -56 59 0
-10 11 -41 -56 59 0
-13 56 -59 0
8 -10 11 13 59 0
8 -10 13 -49 59 0
-10 11 13 -41 59 0
10 -59 0
12 -14 15 -56 60 0
-12 41 -60 0
-14 17 -41 -49 60 0
12 -14 -49 -56 60 0
-15 49 -60 0
-14 -41 -49 -56 60 0
-14 15 -41 -56 60 0
-17 56 -60 0
12 -14 15 17 60 0
12 -14 17 -49 60 0
-14 15 17 -41 60 0
14 -60 0
16 -18 19 -56 61 0
-16 41 -61 0
-18 21 -41 -49 61 0
16 -18 -49 -56 61 0
-19 49 -61 0
-18 -41 -49 -56 61 0
-18 19 -41 -56 61 0
-21 56 -61 0
16 -18 19 21 61 0
16 -18 21 -49 61 0
-18 19 21 -41 61 0
18 -61 0
20 -22 23 -56 62 0
-20 41 -62 0
-22 25 -41 -49 62 0
20 -22 -49 -56 62 0
-23 49 -62 0
-22 -41 -49 -56 62 0
-22 23 -41 -56 62 0
-25 56 -62 0
20 -22 23 25 62 0
20 -22 25 -49 62 0
-22 23 25 -41 62 0
22 -62 0
24 -26 27 -56 63 0
-24 41 -63 0
-26 29 -41 -49 63 0
24 -26 -49 -56 63 0
-27 49 -63 0
-26 -41 -49 -56 63 0
-26 27 -41 -56 63 0
-29 56 -63 0
24 -26 27 29 63 0
24 -26 29 -49 63 0
-26 27 29 -41 63 0
26 -63 0
28 -30 31 33 59 60 63 65 0
-28 41 -65 0
-30 31 -41 -56 -64 0
28 -30 31 -56 59 60 63 65 0
-31 49 -65 0
-30 31 33 -41 -64 0
28 -30 33 -49 59 60 63 65 0
-33 56 -65 0
-30 31 33 -41 59 60 63 65 0
30 -36 56 58 59 60 61 62 63 64 0
28 -30 -49 -56 -64 0
28 -30 -49 -56 59 60 63 65 0
30 -65 0
28 -30 31 33 -64 0
32 -34 36 -49 -64 0
-28 -32 41 58 59 60 61 62 63 64 0
-34 -41 -49 -56 -64 0
-34 35 36 -41 -64 0
-28 -35 41 49 58 59 60 61 62 63 64 0
-31 34 49 58 59 60 61 62 63 64 0
-34 36 -41 -49 -64 0
-28 -36 41 56 58 59 60 61 62 63 64 0
-31 -36 49 56 58 59 60 61 62 63 64 0
-34 35 -41 -56 -64 0
-31 -35 49 58 59 60 61 62 63 64 0
-28 34 41 58 59 60 61 62 63 64 0
32 -34 35 36 -64 0
28 -30 31 -56 -64 0
-58 -64 0
-59 -64 0
-60 -64 0
-61 -64 0
-62 -64 0
-63 -64 0
30 34 58 59 60 61 62 63 64 0
32 -34 -49 -56 -64 0
-31 -32 41 49 58 59 60 61 62 63 64 0
-57 113 -120 -121 0
57 64 -113 -121 0
58 -61 115 116 117 -118 -121 0
58 59 60 61 -117 -121 0
58 59 62 63 -114 -121 0
58 60 -61 65 115 119 -120 -121 0
59 60 61 -62 114 -117 -121 0
59 60 61 -62 114 -116 -121 0
59 60 61 -62 114 -115 -121 0
58 62 63 115 116 117 -118 -121 0
58 59 -61 116 117 -119 -121 0
58 59 -60 116 117 -119 -121 0
-59 -65 0
-60 -65 0
-63 -65 0
30 -32 41 58 59 60 61 62 63 64 0
30 -35 49 58 59 60 61 62 63 64 0
58 -59 115 119 -120 -121 0
58 -59 115 -116 -121 0
-65 114 -115 -121 0
-74 -76 -94 -138 0
-70 74 -76 94 -138 0
-27 -33 48 49 50 51 52 53 54 55 56 0
74 76 -106 0
-70 -74 76 94 -138 0
-27 -36 47 49 50 51 52 53 54 55 56 0
5 66 -68 -70 74 -76 106 0
74 76 -94 -138 0
68 -70 -106 0
5 66 68 70 -74 76 106 0
-30 33 -41 -49 59 60 63 65 0
-30 33 -41 -49 -64 0
70 -94 -138 0
-23 -27 39 41 42 43 44 45 46 48 49 0
26 -33 48 49 50 51 52 53 54 55 56 0
30 38 40 41 50 51 52 53 54 55 56 0
26 39 40 41 50 51 52 53 54 55 56 0
26 -33 34 50 51 52 53 54 55 56 0
-27 40 41 47 49 50 51 52 53 54 55 56 0
-66 -106 0
26 30 -36 50 51 52 53 54 55 56 0
26 30 48 49 50 51 52 53 54 55 56 0
-5 -106 0
26 30 34 50 51 52 53 54 55 56 0
-27 47 48 49 50 51 52 53 54 55 56 0
-61 114 115 116 117 -121 0
6 -8 -12 -16 -20 37 38 39 40 41 0
4 74 -107 0
-23 49 -55 0
-4 41 -51 0
26 -36 47 49 50 51 52 53 54 55 56 0
-6 9 -41 -49 51 0
58 59 60 61 -114 -121 0
4 -6 7 43 0
6 -43 0
-7 -43 0
26 47 48 49 50 51 52 53 54 55 56 0
-20 41 -55 0
26 34 47 49 50 51 52 53 54 55 56 0
-4 -84 -128 0
-27 34 39 41 49 50 51 52 53 54 55 56 0
-29 -33 -36 50 51 52 53 54 55 56 0
22 38 41 42 43 44 45 46 47 48 49 0
22 38 39 41 42 43 44 45 46 48 49 0
-27 30 48 49 50 51 52 53 54 55 56 0
4 -6 9 -49 51 0
22 26 39 41 42 43 44 45 46 48 49 0
-9 -107 0
58 59 60 61 -116 -121 0
-4 10 -12 18 -20 37 38 39 40 41 0
8 74 -108 0
-36 38 39 41 50 51 52 53 54 55 56 0
-8 41 -52 0
-29 30 -36 50 51 52 53 54 55 56 0
-10 13 -41 -49 52 0
59 60 61 -62 114 118 119 -121 0
8 -10 11 44 0
10 -44 0
-11 -44 0
-29 30 48 49 50 51 52 53 54 55 56 0
-29 47 48 49 50 51 52 53 54 55 56 0
-29 30 34 50 51 52 53 54 55 56 0
-8 -85 -129 0
26 -33 40 41 50 51 52 53 54 55 56 0
-29 -36 47 49 50 51 52 53 54 55 56 0
34 38 41 47 49 50 51 52 53 54 55 56 0
8 -10 13 -49 52 0
-13 -108 0
-15 -97 -141 0
15 -68 72 -73 77 109 0
68 72 -77 109 0
73 -97 -141 0
15 -73 77 97 -141 0
-15 68 72 109 0
-68 -77 -109 0
-77 -97 -141 0
-15 -68 -109 0
-72 -109 0
18 -87 -131 0
-18 19 21 -68 71 74 110 0
71 -74 -110 0
-18 19 71 74 98 -142 0
-19 -46 0
71 -74 -98 -142 0
71 -87 -131 0
-71 74 -98 -142 0
-71 74 -110 0
-19 -68 -110 0
-18 -71 87 -131 0
-19 -98 -142 0
-18 19 21 -68 -71 -74 110 0
60 61 -63 114 115 -116 -121 0
60 61 -63 114 115 -117 -121 0
-21 -54 0
20 74 -111 0
-20 -22 23 25 -68 74 111 0
22 -27 42 43 44 45 46 47 48 49 0
-22 23 25 -41 55 0
59 -60 114 116 118 120 -121 0
-23 -27 42 43 44 45 46 47 48 49 0
22 -27 39 41 42 43 44 45 46 48 49 0
-20 -88 -132 0
-22 23 -41 -49 0
22 -27 40 41 42 43 44 45 46 47 49 0
-20 -27 40 41 42 43 44 45 46 47 49 0
-65 114 116 -117 120 -121 0
20 -22 23 -49 0
-25 -111 0
28 -30 39 0
-36 39 -67 -74 106 107 108 109 110 111 112 0
30 34 38 41 50 51 52 53 54 55 56 0
-39 -40 -67 74 106 107 108 109 110 111 112 0
33 -39 47 68 -74 -112 0
40 -47 -67 68 -74 106 107 108 109 110 111 112 0
58 60 62 65 -114 -121 0
58 60 62 65 115 119 -120 -121 0
-30 31 47 0
47 -101 -145 0
30 -36 38 41 50 51 52 53 54 55 56 0
33 39 -47 -68 74 -112 0
40 47 -67 -68 -74 106 107 108 109 110 111 112 0
34 -47 -67 68 106 107 108 109 110 111 112 0
39 -47 74 101 -145 0
58 60 62 65 115 117 -118 -121 0
39 -74 -101 -145 0
-39 48 -67 -68 74 106 107 108 109 110 111 112 0
-33 40 -67 -74 106 107 108 109 110 111 112 0
32 -34 40 0
-27 30 40 41 49 50 51 52 53 54 55 56 0
39 48 -67 -68 -74 106 107 108 109 110 111 112 0
30 34 -67 106 107 108 109 110 111 112 0
36 -40 48 68 -74 -112 0
39 40 -67 -74 106 107 108 109 110 111 112 0
-39 -48 -67 68 74 106 107 108 109 110 111 112 0
-65 114 116 -117 -119 -121 0
58 59 -60 -114 -121 0
-34 35 48 0
48 -102 -146 0
-40 47 -67 -68 74 106 107 108 109 110 111 112 0
36 40 -48 -68 74 -112 0
30 -48 -67 68 106 107 108 109 110 111 112 0
39 -48 -67 68 -74 106 107 108 109 110 111 112 0
36 -40 -48 -68 -74 -112 0
-40 74 -102 -146 0
-39 74 -101 -145 0
30 40 -67 -74 106 107 108 109 110 111 112 0
40 -74 -102 -146 0
-106 -112 0
-107 -112 0
-108 -112 0
-109 -112 0
-110 -112 0
-111 -112 0
67 -112 0
-39 -47 -74 101 -145 0
40 -48 74 102 -146 0
28 -30 33 -49 -64 0
-30 31 -41 -56 59 60 63 65 0
-30 -41 -49 -56 59 60 63 65 0
-30 -41 -49 -56 -64 0
1 -2 3 -112 113 0
-1 75 -113 0
-2 5 -69 -75 113 0
1 -2 -69 -112 113 0
-3 69 -113 0
-2 -69 -75 -112 113 0
-33 -36 56 58 59 60 61 62 63 64 0
-32 -33 41 56 58 59 60 61 62 63 64 0
-2 3 -75 -112 113 0
-5 112 -113 0
-64 113 -116 -121 0
2 -113 0
1 -2 3 5 113 0
1 -2 5 -69 113 0
-2 3 5 -75 113 0
4 -6 7 -112 114 0
-4 75 -114 0
-6 9 -69 -75 114 0
4 -6 -69 -112 114 0
-7 69 -114 0
-6 -69 -75 -112 114 0
-6 7 -75 -112 114 0
-9 112 -114 0
-64 113 -118 -121 0
4 -6 7 9 114 0
4 -6 9 -69 114 0
-6 7 9 -75 114 0
6 -114 0
8 -10 11 -112 115 0
-8 75 -115 0
-10 13 -69 -75 115 0
8 -10 -69 -112 115 0
-11 69 -115 0
-10 -69 -75 -112 115 0
-10 11 -75 -112 115 0
-13 112 -115 0
8 -10 11 13 115 0
8 -10 13 -69 115 0
-10 11 13 -75 115 0
10 -115 0
-64 113 -119 -121 0
12 -14 15 -112 116 0
-12 75 -116 0
-14 17 -69 -75 116 0
12 -14 -69 -112 116 0
-15 69 -116 0
-14 -69 -75 -112 116 0
-14 15 -75 -112 116 0
-17 112 -116 0
12 -14 15 17 116 0
12 -14 17 -69 116 0
-14 15 17 -75 116 0
14 -116 0
16 -18 19 -112 117 0
-16 75 -117 0
-18 21 -69 -75 117 0
16 -18 -69 -112 117 0
-19 69 -117 0
-18 -69 -75 -112 117 0
-18 19 -75 -112 117 0
-21 112 -117 0
32 -34 35 -56 -64 0
16 -18 19 21 117 0
16 -18 21 -69 117 0
-18 19 21 -75 117 0
18 -117 0
20 -22 23 -112 118 0
-20 75 -118 0
-22 25 -69 -75 118 0
20 -22 -69 -112 118 0
-23 69 -118 0
-22 -69 -75 -112 118 0
-22 23 -75 -112 118 0
-25 112 -118 0
32 -34 36 -64 -69 113 -121 0
20 -22 23 25 118 0
20 -22 25 -69 118 0
-22 23 25 -75 118 0
22 -118 0
32 -34 35 -64 -112 113 -121 0
24 -26 27 -112 119 0
-24 75 -119 0
-26 29 69 -75 119 0
24 -26 69 -112 119 0
-27 -69 -119 0
-26 69 -75 -112 119 0
-26 27 -75 -112 119 0
-29 112 -119 0
-34 35 36 -64 -75 113 -121 0
24 -26 27 29 119 0
24 -26 29 69 119 0
-26 27 29 -75 119 0
26 -119 0
32 -34 -64 -69 -112 113 -121 0
28 -30 31 -112 120 0
-28 75 -120 0
-30 33 -69 -75 120 0
28 -30 -69 -112 120 0
-31 69 -120 0
-30 -69 -75 -112 120 0
-30 31 -75 -112 120 0
-33 112 -120 0
-34 36 -64 -69 -75 113 -121 0
28 -30 31 33 120 0
28 -30 33 -69 120 0
-30 31 33 -75 120 0
30 -120 0
-34 35 -64 -75 -112 113 -121 0
-32 57 64 75 114 115 116 117 118 119 120 -121 0
-34 36 -57 -69 -75 113 -121 0
34 57 64 114 115 116 117 118 119 120 -121 0
32 -34 36 -57 -69 113 -121 0
-58 114 116 118 -121 0
-35 57 64 69 114 115 116 117 118 119 120 -121 0
32 -34 35 36 -57 113 -121 0
32 -34 -57 -69 -112 113 -121 0
-57 113 -116 -121 0
-57 113 -117 -121 0
-57 113 -118 -121 0
-57 113 -114 -121 0
-36 57 64 112 114 115 116 117 118 119 120 -121 0
-64 113 -120 -121 0
59 -60 114 116 -117 120 -121 0
58 -59 115 116 117 -118 -121 0
58 60 62 65 115 -116 -121 0
58 59 62 63 116 117 -119 -121 0
60 61 -63 114 115 118 119 -121 0
58 59 -61 -114 -121 0
-58 114 -117 -121 0
-34 -64 -69 -75 -112 113 -121 0
59 -60 114 -115 -121 0
59 61 -62 114 116 118 -119 -121 0
-33 34 56 58 59 60 61 62 63 64 0
-33 -35 49 56 58 59 60 61 62 63 64 0
58 60 -61 65 -114 -121 0
-58 114 118 119 -121 0
-4 10 -12 -16 -20 37 38 39 40 41 0
24 -26 38 0
-29 -38 74 103 -104 105 121 122 123 124 125 126 127 128 129 130 131 132 133 134 135 136 137 138 139 140 141 142 143 144 145 146 0
-26 29 38 74 -103 104 105 121 122 123 124 125 126 127 128 129 130 131 132 133 134 135 136 137 138 139 140 141 142 143 144 145 146 0
26 -29 -74 103 -104 -105 121 122 123 124 125 126 127 128 129 130 131 132 133 134 135 136 137 138 139 140 141 142 143 144 145 146 0
29 -38 -74 -103 104 105 121 122 123 124 125 126 127 128 129 130 131 132 133 134 135 136 137 138 139 140 141 142 143 144 145 146 0
-26 -29 38 74 -103 -104 105 121 122 123 124 125 126 127 128 129 130 131 132 133 134 135 136 137 138 139 140 141 142 143 144 145 146 0
-26 -29 38 -74 103 -104 105 121 122 123 124 125 126 127 128 129 130 131 132 133 134 135 136 137 138 139 140 141 142 143 144 145 146 0
-34 35 36 -57 -75 113 -121 0
-27 39 41 48 49 50 51 52 53 54 55 56 0
-29 -38 -74 -103 -104 105 121 122 123 124 125 126 127 128 129 130 131 132 133 134 135 136 137 138 139 140 141 142 143 144 145 146 0
41 -75 -121 0
-41 75 -121 0
49 -69 -121 0
-49 69 -121 0
56 -112 -121 0
-56 112 -121 0
-57 113 -119 -121 0
-58 114 115 116 117 -121 0
-58 114 -116 -121 0
-65 114 116 118 -119 -121 0
-58 114 -115 -121 0
-2 -78 -122 0
2 78 -122 0
-16 -79 -123 0
16 79 -123 0
-3 -80 -124 0
3 80 -124 0
-66 -81 -125 0
66 81 -125 0
1 -82 -126 0
-1 82 -126 0
-2 -83 -127 0
2 83 -127 0
-4 -74 -95 -139 0
-4 -74 -107 0
4 -6 84 -128 0
-8 -74 -96 -140 0
-8 -74 -108 0
8 -10 85 -129 0
-14 17 -41 -49 53 0
-12 41 -53 0
12 -14 15 45 0
12 -14 17 -49 53 0
18 -98 -142 0
18 -54 0
18 -46 0
-20 -74 -99 -143 0
-20 -74 -111 0
20 -22 88 -132 0
38 -89 -133 0
-38 89 -133 0
39 -90 -134 0
-39 90 -134 0
40 -91 -135 0
-40 91 -135 0
-17 -92 -136 0
17 92 -136 0
-14 -93 -137 0
14 93 -137 0
5 66 -68 -70 -74 76 106 0
-68 70 -106 0
-74 -76 -106 0
5 66 68 70 74 -76 106 0
-7 -95 -139 0
4 -6 7 9 -68 -74 107 0
7 68 -107 0
4 -6 7 -74 95 -139 0
-11 -96 -140 0
8 -10 11 13 -68 -74 108 0
11 68 -108 0
8 -10 11 -74 96 -140 0
-68 73 -109 0
68 72 73 109 0
15 68 -73 77 -109 0
-18 -19 21 68 71 74 110 0
19 68 -110 0
-18 19 -71 -74 98 -142 0
22 -27 39 40 41 42 43 44 45 46 49 0
20 -22 23 25 -68 -74 111 0
23 68 -111 0
20 -22 23 -74 99 -143 0
26 -29 74 -103 -104 -105 121 122 123 124 125 126 127 128 129 130 131 132 133 134 135 136 137 138 139 140 141 142 143 144 145 146 0
58 -59 -114 -121 0
27 -38 -74 100 -144 0
47 48 -67 -68 106 107 108 109 110 111 112 0
-47 -48 -67 68 106 107 108 109 110 111 112 0
33 -39 -47 -68 -74 -112 0
-40 -47 -67 68 74 106 107 108 109 110 111 112 0
34 -39 -67 74 106 107 108 109 110 111 112 0
-40 -48 -74 102 -146 0
30 -40 -67 74 106 107 108 109 110 111 112 0
26 29 -74 103 104 -105 121 122 123 124 125 126 127 128 129 130 131 132 133 134 135 136 137 138 139 140 141 142 143 144 145 146 0
29 -38 74 103 104 105 121 122 123 124 125 126 127 128 129 130 131 132 133 134 135 136 137 138 139 140 141 142 143 144 145 146 0
38 39 40 41 50 51 52 53 54 55 56 0
-26 29 38 -74 103 104 105 121 122 123 124 125 126 127 128 129 130 131 132 133 134 135 136 137 138 139 140 141 142 143 144 145 146 0
38 -74 -100 -144 0
26 29 74 -103 104 -105 121 122 123 124 125 126 127 128 129 130 131 132 133 134 135 136 137 138 139 140 141 142 143 144 145 146 0
58 60 -61 65 115 -116 -121 0
-38 74 -100 -144 0
